9699
1552
2811
1598
8463
5185
8968
8113
4737
5807
6607
9438
6173
1152
2711
7136
2708
3088
7035
7438
7680
9610
3794
3917
10099
2075
6278
1942
5461
9567
5691
3389
8621
4059
10198
5933
9215
5344
7015
3555
6999
3932
9735
5292
6425
4609
4249
7309
7717
6414
